param n := 250;
param c := 450
param : V : p w :=
   0	  52	  42
   1	  79	  69
   2	  77	  67
   3	  67	  57
   4	 103	  93
   5	 100	  90
   6	  48	  38
   7	  46	  36
   8	  55	  45
   9	  52	  42
  10	  43	  33
  11	  89	  79
  12	  37	  27
  13	  67	  57
  14	  54	  44
  15	  94	  84
  16	  96	  86
  17	 102	  92
  18	  56	  46
  19	  48	  38
  20	  95	  85
  21	  43	  33
  22	  92	  82
  23	  83	  73
  24	  59	  49
  25	  80	  70
  26	  69	  59
  27	  33	  23
  28	  67	  57
  29	  82	  72
  30	  84	  74
  31	  79	  69
  32	  43	  33
  33	  52	  42
  34	  38	  28
  35	  56	  46
  36	  40	  30
  37	  74	  64
  38	  39	  29
  39	  84	  74
  40	  51	  41
  41	  59	  49
  42	  65	  55
  43	 108	  98
  44	  90	  80
  45	  42	  32
  46	  35	  25
  47	  48	  38
  48	  92	  82
  49	  40	  30
  50	  45	  35
  51	  49	  39
  52	  67	  57
  53	  94	  84
  54	  72	  62
  55	  60	  50
  56	  65	  55
  57	  37	  27
  58	  40	  30
  59	  46	  36
  60	  30	  20
  61	  88	  78
  62	  57	  47
  63	  36	  26
  64	  55	  45
  65	  51	  41
  66	  68	  58
  67	 108	  98
  68	 101	  91
  69	 106	  96
  70	  83	  73
  71	  94	  84
  72	  47	  37
  73	 103	  93
  74	 101	  91
  75	  53	  43
  76	  83	  73
  77	  95	  85
  78	  91	  81
  79	  89	  79
  80	  81	  71
  81	  90	  80
  82	  86	  76
  83	  93	  83
  84	  51	  41
  85	  88	  78
  86	  80	  70
  87	  33	  23
  88	  52	  42
  89	  97	  87
  90	  53	  43
  91	  94	  84
  92	  70	  60
  93	  65	  55
  94	  59	  49
  95	  88	  78
  96	  83	  73
  97	  72	  62
  98	  46	  36
  99	  54	  44
 100	 104	  94
 101	  79	  69
 102	  42	  32
 103	 106	  96
 104	  80	  70
 105	  94	  84
 106	  68	  58
 107	  88	  78
 108	  35	  25
 109	  90	  80
 110	  68	  58
 111	  76	  66
 112	  93	  83
 113	  34	  24
 114	 108	  98
 115	  70	  60
 116	  52	  42
 117	  53	  43
 118	  53	  43
 119	  49	  39
 120	 107	  97
 121	  67	  57
 122	  91	  81
 123	  72	  62
 124	  85	  75
 125	  91	  81
 126	  33	  23
 127	  53	  43
 128	  60	  50
 129	  48	  38
 130	  70	  60
 131	  68	  58
 132	  80	  70
 133	  98	  88
 134	  46	  36
 135	 100	  90
 136	  47	  37
 137	  55	  45
 138	  55	  45
 139	  49	  39
 140	  54	  44
 141	  63	  53
 142	  80	  70
 143	  34	  24
 144	  92	  82
 145	  91	  81
 146	  57	  47
 147	 107	  97
 148	  45	  35
 149	  75	  65
 150	  84	  74
 151	  78	  68
 152	  59	  49
 153	  65	  55
 154	  62	  52
 155	 104	  94
 156	 105	  95
 157	  39	  29
 158	 109	  99
 159	  30	  20
 160	  32	  22
 161	  35	  25
 162	  59	  49
 163	  56	  46
 164	 108	  98
 165	  69	  59
 166	 108	  98
 167	  70	  60
 168	  33	  23
 169	  82	  72
 170	  43	  33
 171	 108	  98
 172	  90	  80
 173	 105	  95
 174	  88	  78
 175	  67	  57
 176	  77	  67
 177	  63	  53
 178	  57	  47
 179	  63	  53
 180	  46	  36
 181	  48	  38
 182	 102	  92
 183	  40	  30
 184	  90	  80
 185	  42	  32
 186	 107	  97
 187	  49	  39
 188	  90	  80
 189	  82	  72
 190	  65	  55
 191	  51	  41
 192	  70	  60
 193	  77	  67
 194	  63	  53
 195	  75	  65
 196	 105	  95
 197	  30	  20
 198	  76	  66
 199	  88	  78
 200	 108	  98
 201	  57	  47
 202	 110	 100
 203	  95	  85
 204	  63	  53
 205	  63	  53
 206	  77	  67
 207	  37	  27
 208	  32	  22
 209	  71	  61
 210	  53	  43
 211	  62	  52
 212	  86	  76
 213	  74	  64
 214	  71	  61
 215	  39	  29
 216	  40	  30
 217	  56	  46
 218	  89	  79
 219	  76	  66
 220	  37	  27
 221	  89	  79
 222	 108	  98
 223	 100	  90
 224	  32	  22
 225	  85	  75
 226	  67	  57
 227	  77	  67
 228	  46	  36
 229	  80	  70
 230	 109	  99
 231	  58	  48
 232	  53	  43
 233	  55	  45
 234	  81	  71
 235	 110	 100
 236	  98	  88
 237	  58	  48
 238	  37	  27
 239	  49	  39
 240	  48	  38
 241	 110	 100
 242	  70	  60
 243	  52	  42
 244	  30	  20
 245	  79	  69
 246	  34	  24
 247	  33	  23
 248	 102	  92
 249	  42	  32
;

set E :=
   0	   7
   0	  13
   0	  19
   0	  23
   0	  43
   0	  45
   0	  52
   0	  95
   0	  99
   0	 100
   0	 117
   0	 119
   0	 129
   0	 130
   0	 140
   0	 149
   0	 159
   0	 215
   0	 243
   0	 247
   1	   2
   1	  13
   1	  17
   1	  40
   1	  43
   1	  51
   1	  70
   1	  72
   1	  85
   1	  91
   1	  93
   1	  94
   1	  98
   1	 103
   1	 110
   1	 132
   1	 134
   1	 178
   1	 182
   1	 187
   1	 193
   1	 224
   1	 230
   1	 232
   1	 235
   1	 236
   2	  11
   2	  12
   2	  24
   2	  34
   2	  36
   2	  41
   2	  46
   2	  48
   2	  51
   2	  58
   2	  82
   2	  84
   2	  96
   2	  97
   2	 100
   2	 102
   2	 111
   2	 116
   2	 140
   2	 165
   2	 167
   2	 171
   2	 172
   2	 180
   2	 186
   2	 187
   2	 196
   2	 206
   2	 215
   2	 225
   2	 230
   2	 248
   3	  12
   3	  14
   3	  19
   3	  81
   3	  86
   3	 102
   3	 103
   3	 106
   3	 118
   3	 148
   3	 154
   3	 157
   3	 170
   3	 179
   3	 185
   3	 197
   3	 201
   3	 207
   3	 215
   3	 218
   4	  15
   4	  48
   4	  49
   4	  50
   4	  52
   4	  54
   4	  67
   4	  82
   4	  85
   4	  88
   4	  91
   4	 105
   4	 109
   4	 113
   4	 130
   4	 131
   4	 132
   4	 135
   4	 146
   4	 163
   4	 178
   4	 181
   4	 182
   4	 194
   4	 201
   4	 210
   4	 226
   4	 230
   4	 239
   4	 240
   4	 241
   4	 244
   4	 247
   5	  42
   5	  56
   5	  65
   5	  72
   5	 101
   5	 123
   5	 126
   5	 142
   5	 151
   5	 156
   5	 161
   5	 173
   5	 185
   5	 191
   5	 210
   5	 226
   5	 233
   5	 239
   5	 240
   6	   9
   6	  13
   6	  26
   6	  28
   6	  30
   6	  32
   6	  33
   6	  41
   6	  69
   6	  73
   6	  97
   6	  98
   6	 113
   6	 131
   6	 144
   6	 154
   6	 169
   6	 175
   6	 182
   6	 186
   6	 202
   6	 205
   6	 209
   6	 213
   6	 215
   6	 231
   6	 241
   6	 242
   7	   9
   7	  26
   7	  28
   7	  29
   7	  50
   7	  55
   7	  65
   7	  73
   7	  76
   7	  86
   7	 116
   7	 118
   7	 119
   7	 122
   7	 137
   7	 148
   7	 149
   7	 160
   7	 161
   7	 162
   7	 171
   7	 187
   7	 209
   7	 219
   7	 226
   7	 229
   7	 238
   7	 239
   7	 240
   8	  12
   8	  17
   8	  31
   8	  35
   8	  40
   8	  41
   8	  53
   8	  54
   8	  65
   8	  70
   8	  90
   8	  94
   8	  98
   8	 111
   8	 138
   8	 140
   8	 143
   8	 173
   8	 188
   8	 209
   8	 210
   8	 224
   8	 229
   8	 245
   9	  22
   9	  25
   9	  34
   9	  46
   9	  53
   9	  57
   9	  81
   9	  82
   9	  83
   9	  85
   9	  86
   9	 102
   9	 111
   9	 133
   9	 194
   9	 242
  10	  15
  10	  42
  10	  51
  10	  64
  10	  70
  10	  73
  10	  75
  10	  82
  10	  84
  10	  92
  10	 100
  10	 102
  10	 113
  10	 119
  10	 132
  10	 135
  10	 145
  10	 149
  10	 157
  10	 161
  10	 168
  10	 189
  10	 195
  10	 199
  10	 214
  10	 216
  10	 232
  10	 243
  11	  15
  11	  19
  11	  32
  11	  34
  11	  35
  11	  36
  11	  56
  11	  71
  11	  78
  11	 108
  11	 117
  11	 119
  11	 131
  11	 137
  11	 155
  11	 156
  11	 158
  11	 160
  11	 169
  11	 193
  11	 196
  11	 198
  11	 201
  11	 204
  11	 221
  11	 228
  11	 230
  12	  15
  12	  20
  12	  21
  12	  23
  12	  30
  12	  31
  12	  36
  12	  38
  12	  73
  12	 103
  12	 104
  12	 111
  12	 143
  12	 146
  12	 166
  12	 180
  12	 186
  12	 216
  12	 223
  12	 229
  12	 247
  13	  22
  13	  29
  13	  32
  13	  34
  13	  66
  13	  79
  13	  97
  13	 114
  13	 118
  13	 127
  13	 128
  13	 132
  13	 152
  13	 165
  13	 168
  13	 172
  13	 173
  13	 179
  13	 189
  13	 218
  13	 225
  13	 231
  13	 240
  14	  37
  14	  40
  14	  41
  14	  53
  14	  59
  14	  62
  14	  63
  14	  74
  14	  81
  14	  84
  14	 105
  14	 116
  14	 117
  14	 121
  14	 123
  14	 125
  14	 135
  14	 137
  14	 146
  14	 161
  14	 167
  14	 181
  14	 199
  14	 202
  14	 203
  14	 208
  15	  16
  15	  18
  15	  31
  15	  34
  15	  40
  15	  47
  15	  49
  15	  56
  15	  66
  15	  68
  15	  72
  15	  74
  15	  90
  15	  96
  15	 128
  15	 134
  15	 138
  15	 140
  15	 152
  15	 168
  15	 181
  15	 199
  15	 201
  15	 229
  15	 236
  15	 246
  16	  19
  16	  21
  16	  25
  16	  37
  16	  54
  16	  58
  16	  67
  16	  84
  16	  85
  16	  88
  16	  96
  16	 111
  16	 137
  16	 145
  16	 157
  16	 160
  16	 186
  16	 194
  16	 208
  16	 239
  17	  44
  17	  45
  17	  52
  17	  70
  17	  71
  17	  72
  17	  79
  17	  92
  17	  94
  17	 100
  17	 111
  17	 116
  17	 118
  17	 126
  17	 127
  17	 143
  17	 145
  17	 146
  17	 161
  17	 163
  17	 166
  17	 168
  17	 177
  17	 181
  17	 184
  17	 200
  17	 203
  17	 213
  17	 227
  17	 239
  17	 242
  18	  24
  18	  32
  18	  45
  18	  49
  18	  52
  18	  62
  18	  73
  18	  85
  18	  90
  18	 118
  18	 119
  18	 123
  18	 135
  18	 167
  18	 181
  18	 189
  18	 194
  18	 198
  18	 202
  18	 204
  18	 213
  18	 218
  18	 220
  18	 229
  18	 236
  18	 242
  18	 245
  19	  30
  19	  31
  19	  34
  19	  40
  19	  44
  19	  91
  19	  93
  19	  96
  19	 106
  19	 155
  19	 159
  19	 164
  19	 177
  19	 205
  19	 216
  19	 234
  19	 241
  19	 244
  20	  24
  20	  27
  20	  32
  20	  41
  20	  47
  20	  48
  20	  57
  20	  67
  20	  73
  20	  77
  20	  81
  20	  83
  20	  93
  20	 120
  20	 148
  20	 152
  20	 165
  20	 169
  20	 177
  20	 209
  20	 214
  20	 227
  20	 235
  20	 238
  20	 245
  21	  34
  21	  37
  21	  43
  21	  50
  21	  78
  21	  91
  21	 102
  21	 117
  21	 124
  21	 125
  21	 169
  21	 178
  21	 188
  21	 189
  21	 195
  21	 206
  21	 214
  21	 227
  21	 230
  21	 233
  21	 248
  22	  44
  22	  60
  22	  61
  22	  72
  22	  83
  22	 104
  22	 114
  22	 116
  22	 121
  22	 131
  22	 151
  22	 152
  22	 154
  22	 161
  22	 164
  22	 167
  22	 178
  22	 214
  22	 215
  23	  24
  23	  27
  23	  32
  23	  34
  23	  39
  23	  64
  23	  67
  23	  71
  23	  93
  23	  94
  23	 116
  23	 118
  23	 122
  23	 130
  23	 144
  23	 153
  23	 163
  23	 181
  23	 184
  23	 190
  23	 218
  23	 224
  23	 225
  23	 233
  23	 243
  23	 246
  24	  41
  24	  43
  24	  51
  24	  56
  24	  64
  24	  67
  24	  74
  24	  84
  24	  95
  24	 101
  24	 103
  24	 110
  24	 111
  24	 113
  24	 125
  24	 126
  24	 141
  24	 144
  24	 154
  24	 155
  24	 156
  24	 160
  24	 218
  24	 244
  24	 249
  25	  38
  25	  40
  25	  43
  25	  81
  25	  94
  25	  95
  25	 114
  25	 118
  25	 122
  25	 133
  25	 142
  25	 144
  25	 145
  25	 166
  25	 180
  25	 190
  25	 206
  25	 209
  25	 220
  25	 223
  25	 225
  25	 246
  26	  34
  26	  53
  26	  58
  26	  72
  26	  76
  26	  81
  26	 104
  26	 114
  26	 126
  26	 136
  26	 140
  26	 141
  26	 142
  26	 149
  26	 151
  26	 173
  26	 203
  26	 216
  26	 222
  26	 225
  26	 232
  26	 244
  27	  30
  27	  42
  27	  65
  27	  67
  27	  75
  27	  79
  27	  85
  27	  86
  27	  90
  27	  93
  27	  99
  27	 100
  27	 107
  27	 123
  27	 124
  27	 135
  27	 146
  27	 170
  27	 176
  27	 186
  27	 190
  27	 197
  27	 207
  27	 219
  27	 245
  28	  39
  28	  44
  28	  56
  28	  73
  28	  74
  28	  76
  28	  83
  28	  88
  28	  93
  28	  99
  28	 112
  28	 116
  28	 120
  28	 126
  28	 142
  28	 148
  28	 152
  28	 154
  28	 162
  28	 171
  28	 172
  28	 173
  28	 182
  28	 186
  28	 189
  28	 216
  28	 217
  28	 230
  28	 234
  28	 238
  28	 240
  28	 244
  28	 248
  29	  52
  29	  57
  29	  62
  29	  63
  29	  75
  29	  89
  29	  91
  29	 104
  29	 105
  29	 112
  29	 113
  29	 115
  29	 156
  29	 158
  29	 195
  29	 197
  29	 211
  29	 215
  29	 222
  29	 249
  30	  32
  30	  40
  30	  46
  30	  47
  30	  82
  30	  91
  30	  95
  30	 102
  30	 110
  30	 135
  30	 166
  30	 171
  30	 172
  30	 177
  30	 192
  31	  41
  31	  57
  31	  62
  31	  79
  31	  96
  31	 106
  31	 121
  31	 137
  31	 146
  31	 160
  31	 162
  31	 166
  31	 194
  31	 210
  31	 233
  31	 245
  32	  46
  32	  48
  32	  56
  32	  71
  32	  76
  32	  77
  32	  80
  32	 108
  32	 116
  32	 122
  32	 126
  32	 137
  32	 141
  32	 149
  32	 161
  32	 169
  32	 180
  32	 202
  32	 204
  32	 206
  32	 209
  32	 218
  32	 219
  32	 223
  32	 225
  32	 228
  32	 240
  33	  52
  33	  54
  33	  62
  33	  77
  33	  85
  33	 129
  33	 156
  33	 159
  33	 194
  33	 199
  33	 205
  33	 242
  34	  39
  34	  42
  34	  54
  34	  55
  34	  72
  34	  82
  34	  85
  34	  96
  34	  99
  34	 113
  34	 127
  34	 144
  34	 152
  34	 164
  34	 182
  34	 190
  34	 197
  34	 211
  34	 219
  34	 224
  35	  43
  35	  66
  35	  75
  35	  78
  35	  82
  35	  89
  35	  91
  35	  94
  35	 104
  35	 110
  35	 118
  35	 122
  35	 123
  35	 126
  35	 134
  35	 137
  35	 139
  35	 144
  35	 145
  35	 161
  35	 182
  35	 193
  35	 205
  35	 212
  35	 214
  35	 215
  35	 224
  36	  41
  36	  53
  36	  56
  36	  67
  36	  75
  36	  82
  36	  86
  36	  87
  36	  91
  36	  98
  36	 100
  36	 111
  36	 115
  36	 117
  36	 125
  36	 150
  36	 177
  36	 206
  37	  56
  37	  65
  37	  68
  37	  89
  37	 111
  37	 112
  37	 123
  37	 133
  37	 136
  37	 155
  37	 167
  37	 169
  37	 172
  37	 187
  37	 193
  37	 194
  37	 195
  37	 196
  37	 203
  37	 218
  37	 242
  38	  44
  38	  47
  38	  50
  38	  75
  38	  84
  38	  91
  38	  92
  38	 104
  38	 107
  38	 116
  38	 121
  38	 141
  38	 188
  38	 193
  38	 201
  38	 208
  38	 210
  38	 213
  38	 223
  38	 227
  38	 228
  38	 246
  39	  44
  39	  58
  39	  64
  39	  69
  39	  99
  39	 123
  39	 137
  39	 175
  39	 178
  39	 182
  39	 188
  39	 195
  39	 199
  39	 200
  39	 201
  39	 213
  39	 219
  39	 235
  39	 241
  40	  43
  40	  48
  40	  51
  40	  54
  40	  63
  40	  64
  40	  73
  40	  79
  40	  90
  40	 119
  40	 127
  40	 145
  40	 153
  40	 158
  40	 167
  40	 171
  40	 200
  40	 201
  40	 210
  40	 211
  40	 237
  41	  49
  41	  50
  41	  58
  41	  65
  41	  92
  41	  93
  41	 104
  41	 106
  41	 107
  41	 110
  41	 111
  41	 122
  41	 129
  41	 139
  41	 148
  41	 151
  41	 152
  41	 157
  41	 163
  41	 211
  41	 220
  41	 221
  41	 229
  41	 231
  41	 241
  42	  48
  42	  61
  42	  71
  42	  79
  42	  87
  42	 100
  42	 104
  42	 106
  42	 110
  42	 111
  42	 118
  42	 119
  42	 123
  42	 133
  42	 134
  42	 137
  42	 141
  42	 162
  42	 195
  42	 197
  42	 202
  42	 204
  42	 228
  43	  55
  43	  61
  43	  66
  43	  68
  43	  73
  43	 103
  43	 116
  43	 129
  43	 131
  43	 135
  43	 136
  43	 138
  43	 160
  43	 168
  43	 169
  43	 175
  43	 188
  43	 191
  43	 218
  43	 243
  44	  46
  44	  50
  44	  55
  44	  60
  44	  75
  44	  78
  44	  84
  44	  85
  44	  99
  44	 114
  44	 120
  44	 124
  44	 152
  44	 163
  44	 165
  44	 184
  44	 185
  44	 187
  44	 188
  44	 190
  44	 193
  44	 196
  44	 201
  44	 206
  44	 227
  44	 231
  44	 233
  45	  61
  45	  79
  45	  88
  45	  92
  45	  96
  45	 128
  45	 131
  45	 140
  45	 141
  45	 146
  45	 148
  45	 149
  45	 174
  45	 176
  45	 177
  45	 182
  45	 186
  45	 198
  45	 209
  45	 210
  45	 212
  45	 223
  45	 224
  45	 238
  45	 239
  46	  51
  46	  53
  46	  92
  46	  95
  46	  97
  46	 107
  46	 113
  46	 122
  46	 138
  46	 149
  46	 150
  46	 152
  46	 163
  46	 177
  46	 185
  46	 200
  46	 203
  46	 210
  46	 212
  46	 216
  46	 219
  46	 228
  46	 233
  46	 237
  47	  54
  47	  56
  47	  59
  47	  68
  47	  79
  47	  95
  47	 116
  47	 120
  47	 122
  47	 126
  47	 140
  47	 146
  47	 154
  47	 161
  47	 182
  47	 189
  47	 190
  47	 207
  47	 213
  47	 242
  47	 245
  48	  64
  48	  78
  48	  89
  48	  93
  48	  95
  48	 115
  48	 120
  48	 127
  48	 129
  48	 140
  48	 166
  48	 176
  48	 181
  48	 191
  48	 205
  48	 218
  48	 222
  48	 230
  48	 235
  48	 239
  48	 244
  49	  72
  49	  86
  49	  89
  49	 108
  49	 114
  49	 115
  49	 116
  49	 121
  49	 126
  49	 128
  49	 159
  49	 165
  49	 179
  49	 189
  49	 211
  49	 215
  49	 241
  50	  57
  50	  63
  50	  72
  50	  89
  50	  90
  50	 108
  50	 114
  50	 117
  50	 119
  50	 139
  50	 147
  50	 182
  50	 187
  50	 188
  50	 192
  50	 216
  50	 223
  50	 248
  51	  83
  51	  95
  51	 104
  51	 110
  51	 114
  51	 118
  51	 137
  51	 145
  51	 153
  51	 166
  51	 176
  51	 188
  51	 189
  51	 196
  51	 203
  51	 216
  51	 219
  51	 220
  51	 224
  51	 232
  51	 245
  52	  64
  52	  66
  52	  84
  52	  91
  52	 115
  52	 117
  52	 127
  52	 130
  52	 155
  52	 162
  52	 163
  52	 168
  52	 175
  52	 180
  52	 184
  52	 191
  52	 206
  52	 208
  52	 218
  52	 231
  52	 232
  52	 240
  53	  55
  53	  57
  53	  71
  53	  77
  53	  79
  53	  95
  53	 102
  53	 105
  53	 108
  53	 116
  53	 139
  53	 156
  53	 160
  53	 165
  53	 166
  53	 167
  53	 178
  53	 190
  53	 202
  53	 222
  53	 231
  54	  62
  54	  63
  54	  74
  54	  93
  54	  95
  54	 105
  54	 118
  54	 123
  54	 125
  54	 137
  54	 152
  54	 156
  54	 157
  54	 158
  54	 165
  54	 171
  54	 172
  54	 178
  54	 218
  54	 222
  54	 233
  54	 243
  55	  60
  55	  63
  55	  70
  55	  72
  55	  76
  55	  90
  55	  93
  55	 116
  55	 125
  55	 128
  55	 137
  55	 141
  55	 143
  55	 148
  55	 159
  55	 179
  55	 190
  55	 211
  55	 224
  55	 227
  55	 235
  55	 248
  56	  58
  56	  67
  56	  68
  56	  69
  56	  88
  56	 115
  56	 116
  56	 123
  56	 133
  56	 142
  56	 145
  56	 147
  56	 153
  56	 154
  56	 162
  56	 171
  56	 194
  56	 197
  56	 222
  56	 230
  56	 234
  56	 238
  56	 241
  56	 242
  56	 247
  57	  75
  57	  83
  57	 104
  57	 112
  57	 115
  57	 126
  57	 138
  57	 167
  57	 176
  57	 183
  57	 188
  57	 192
  57	 193
  57	 209
  57	 215
  57	 221
  57	 231
  57	 232
  57	 239
  57	 245
  57	 249
  58	  61
  58	  72
  58	  75
  58	  79
  58	  84
  58	  89
  58	 116
  58	 133
  58	 151
  58	 157
  58	 170
  58	 180
  58	 182
  58	 184
  58	 185
  58	 191
  58	 205
  58	 222
  58	 224
  58	 228
  58	 232
  58	 240
  58	 245
  59	  95
  59	 103
  59	 133
  59	 135
  59	 141
  59	 142
  59	 151
  59	 159
  59	 162
  59	 173
  59	 185
  59	 200
  59	 225
  60	  78
  60	  86
  60	  90
  60	  94
  60	  99
  60	 103
  60	 109
  60	 119
  60	 128
  60	 130
  60	 138
  60	 171
  60	 172
  60	 175
  60	 190
  60	 208
  60	 221
  60	 247
  61	  64
  61	  68
  61	  92
  61	  93
  61	 100
  61	 112
  61	 128
  61	 135
  61	 155
  61	 161
  61	 168
  61	 180
  61	 184
  61	 199
  61	 201
  61	 223
  61	 226
  61	 231
  61	 233
  61	 245
  62	  82
  62	 102
  62	 111
  62	 117
  62	 145
  62	 154
  62	 156
  62	 164
  62	 210
  62	 214
  62	 225
  62	 227
  62	 244
  63	  81
  63	 120
  63	 125
  63	 138
  63	 146
  63	 172
  63	 174
  63	 182
  63	 186
  63	 187
  63	 188
  63	 189
  63	 193
  63	 202
  63	 209
  63	 224
  63	 227
  63	 231
  63	 247
  64	  67
  64	  84
  64	  86
  64	  92
  64	 106
  64	 110
  64	 119
  64	 122
  64	 123
  64	 130
  64	 132
  64	 162
  64	 175
  64	 178
  64	 180
  64	 203
  64	 209
  64	 238
  64	 244
  65	  70
  65	  86
  65	  88
  65	  97
  65	 113
  65	 130
  65	 153
  65	 161
  65	 171
  65	 179
  65	 183
  66	  74
  66	  80
  66	  90
  66	 100
  66	 103
  66	 104
  66	 129
  66	 135
  66	 167
  66	 172
  66	 180
  66	 181
  66	 185
  66	 188
  66	 190
  66	 195
  66	 207
  66	 213
  66	 220
  66	 229
  66	 230
  66	 249
  67	  69
  67	  75
  67	  80
  67	  88
  67	  90
  67	 100
  67	 140
  67	 145
  67	 151
  67	 152
  67	 153
  67	 155
  67	 158
  67	 159
  67	 161
  67	 170
  67	 189
  67	 199
  67	 201
  68	  73
  68	  74
  68	  75
  68	 115
  68	 117
  68	 127
  68	 144
  68	 151
  68	 153
  68	 155
  68	 163
  68	 168
  68	 192
  68	 230
  68	 249
  69	  79
  69	  80
  69	  82
  69	  85
  69	  86
  69	  99
  69	 108
  69	 119
  69	 125
  69	 127
  69	 134
  69	 143
  69	 161
  69	 191
  69	 193
  69	 199
  69	 211
  69	 214
  69	 243
  69	 248
  70	  93
  70	 102
  70	 109
  70	 130
  70	 133
  70	 151
  70	 160
  70	 169
  70	 176
  70	 178
  70	 179
  70	 181
  70	 208
  70	 219
  70	 223
  70	 226
  70	 230
  70	 234
  70	 235
  70	 237
  71	  82
  71	  89
  71	  90
  71	  97
  71	  98
  71	 109
  71	 112
  71	 129
  71	 130
  71	 149
  71	 159
  71	 171
  71	 173
  71	 175
  71	 179
  71	 186
  71	 212
  71	 216
  71	 228
  71	 239
  71	 240
  72	  83
  72	  96
  72	 104
  72	 109
  72	 110
  72	 111
  72	 123
  72	 146
  72	 155
  72	 160
  72	 183
  72	 191
  72	 222
  72	 235
  72	 239
  72	 240
  72	 247
  72	 248
  73	  77
  73	  85
  73	  89
  73	  91
  73	 105
  73	 122
  73	 131
  73	 135
  73	 137
  73	 140
  73	 146
  73	 147
  73	 148
  73	 173
  73	 200
  73	 211
  73	 213
  73	 229
  73	 234
  73	 241
  74	  82
  74	  90
  74	  95
  74	 124
  74	 134
  74	 144
  74	 167
  74	 182
  74	 201
  74	 216
  74	 225
  75	  86
  75	  98
  75	 112
  75	 117
  75	 139
  75	 150
  75	 151
  75	 165
  75	 167
  75	 187
  75	 193
  75	 203
  75	 212
  75	 233
  75	 235
  75	 245
  76	  77
  76	  89
  76	 117
  76	 118
  76	 121
  76	 122
  76	 123
  76	 130
  76	 132
  76	 141
  76	 148
  76	 153
  76	 158
  76	 161
  76	 178
  76	 202
  77	 100
  77	 115
  77	 129
  77	 149
  77	 170
  77	 183
  77	 193
  77	 194
  77	 205
  77	 223
  77	 238
  78	  99
  78	 104
  78	 107
  78	 108
  78	 111
  78	 116
  78	 164
  78	 178
  78	 190
  78	 196
  78	 204
  78	 221
  78	 236
  78	 237
  78	 242
  79	  84
  79	  88
  79	 102
  79	 104
  79	 105
  79	 107
  79	 108
  79	 131
  79	 141
  79	 143
  79	 153
  79	 155
  79	 173
  79	 183
  79	 193
  79	 194
  79	 196
  80	  88
  80	  90
  80	 105
  80	 116
  80	 118
  80	 126
  80	 136
  80	 138
  80	 140
  80	 143
  80	 145
  80	 152
  80	 165
  80	 166
  80	 169
  80	 171
  80	 179
  80	 206
  80	 213
  80	 214
  80	 217
  80	 219
  80	 238
  80	 243
  81	  89
  81	 119
  81	 139
  81	 145
  81	 171
  81	 184
  81	 186
  81	 190
  81	 201
  81	 203
  81	 207
  81	 211
  81	 220
  81	 248
  82	  85
  82	  88
  82	  96
  82	 114
  82	 129
  82	 133
  82	 135
  82	 162
  82	 169
  82	 209
  82	 214
  82	 229
  82	 234
  82	 242
  82	 248
  83	  92
  83	 122
  83	 130
  83	 134
  83	 168
  83	 173
  83	 175
  83	 184
  83	 187
  83	 190
  83	 209
  83	 212
  83	 218
  83	 228
  83	 234
  83	 235
  83	 239
  83	 240
  83	 245
  83	 249
  84	  93
  84	  94
  84	 106
  84	 109
  84	 116
  84	 129
  84	 145
  84	 158
  84	 181
  84	 187
  84	 198
  84	 203
  84	 205
  84	 211
  84	 234
  84	 241
  84	 245
  85	  92
  85	  94
  85	 106
  85	 107
  85	 112
  85	 129
  85	 133
  85	 136
  85	 141
  85	 146
  85	 174
  85	 175
  85	 185
  85	 192
  85	 208
  86	  88
  86	  97
  86	 130
  86	 141
  86	 148
  86	 164
  86	 183
  86	 185
  86	 235
  87	  97
  87	  98
  87	 102
  87	 107
  87	 131
  87	 180
  87	 190
  87	 199
  87	 214
  87	 243
  87	 248
  88	 100
  88	 106
  88	 113
  88	 120
  88	 122
  88	 131
  88	 132
  88	 133
  88	 135
  88	 137
  88	 152
  88	 164
  88	 193
  88	 202
  88	 204
  88	 207
  88	 211
  88	 214
  88	 217
  88	 226
  88	 234
  88	 235
  88	 249
  89	 102
  89	 110
  89	 117
  89	 119
  89	 124
  89	 125
  89	 136
  89	 147
  89	 148
  89	 168
  89	 177
  89	 178
  89	 185
  89	 197
  89	 198
  89	 200
  89	 212
  89	 216
  89	 217
  89	 225
  89	 226
  89	 231
  89	 235
  90	  92
  90	  97
  90	 103
  90	 135
  90	 136
  90	 149
  90	 156
  90	 165
  90	 202
  90	 205
  90	 211
  90	 213
  90	 219
  90	 232
  91	  97
  91	 113
  91	 130
  91	 142
  91	 151
  91	 166
  91	 178
  91	 181
  91	 182
  91	 196
  91	 213
  91	 220
  91	 225
  91	 241
  91	 246
  92	 103
  92	 105
  92	 115
  92	 123
  92	 125
  92	 129
  92	 134
  92	 141
  92	 145
  92	 158
  92	 168
  92	 175
  92	 183
  92	 204
  92	 221
  92	 233
  92	 241
  93	  95
  93	 103
  93	 106
  93	 107
  93	 122
  93	 124
  93	 128
  93	 145
  93	 168
  93	 185
  93	 196
  93	 208
  93	 213
  93	 225
  93	 227
  93	 229
  93	 232
  93	 235
  93	 236
  94	 122
  94	 129
  94	 137
  94	 153
  94	 161
  94	 163
  94	 181
  94	 187
  94	 194
  94	 212
  94	 219
  94	 228
  95	  97
  95	 112
  95	 113
  95	 115
  95	 130
  95	 144
  95	 146
  95	 162
  95	 175
  95	 178
  95	 202
  95	 204
  96	  97
  96	 105
  96	 128
  96	 131
  96	 156
  96	 161
  96	 182
  96	 187
  96	 204
  96	 205
  96	 208
  96	 212
  96	 240
  96	 249
  97	  98
  97	 111
  97	 113
  97	 120
  97	 149
  97	 151
  97	 152
  97	 165
  97	 192
  97	 197
  97	 220
  97	 227
  97	 231
  97	 238
  97	 242
  98	 101
  98	 112
  98	 117
  98	 123
  98	 124
  98	 128
  98	 141
  98	 143
  98	 154
  98	 155
  98	 159
  98	 169
  98	 172
  98	 173
  98	 181
  98	 186
  98	 188
  98	 190
  98	 197
  98	 200
  98	 230
  98	 239
  99	 108
  99	 111
  99	 126
  99	 131
  99	 134
  99	 144
  99	 161
  99	 174
  99	 175
  99	 196
  99	 213
  99	 244
 100	 114
 100	 121
 100	 153
 100	 155
 100	 183
 100	 188
 100	 212
 100	 214
 101	 109
 101	 120
 101	 131
 101	 139
 101	 144
 101	 155
 101	 156
 101	 172
 101	 195
 101	 202
 101	 203
 101	 238
 102	 127
 102	 130
 102	 145
 102	 147
 102	 151
 102	 179
 102	 203
 102	 220
 102	 225
 102	 228
 102	 232
 103	 104
 103	 124
 103	 136
 103	 166
 103	 195
 103	 219
 104	 109
 104	 116
 104	 132
 104	 143
 104	 150
 104	 166
 104	 169
 104	 174
 104	 218
 104	 219
 104	 231
 105	 114
 105	 116
 105	 118
 105	 123
 105	 125
 105	 127
 105	 130
 105	 135
 105	 138
 105	 148
 105	 163
 105	 173
 105	 174
 105	 184
 105	 189
 105	 224
 105	 229
 106	 117
 106	 120
 106	 167
 106	 171
 106	 172
 106	 185
 106	 186
 106	 203
 106	 210
 106	 231
 106	 244
 106	 245
 107	 109
 107	 110
 107	 113
 107	 129
 107	 141
 107	 143
 107	 150
 107	 156
 107	 179
 107	 187
 107	 194
 107	 201
 107	 211
 107	 229
 107	 233
 107	 234
 107	 236
 107	 237
 107	 244
 108	 119
 108	 137
 108	 144
 108	 145
 108	 148
 108	 159
 108	 175
 108	 182
 108	 193
 108	 196
 108	 209
 108	 212
 108	 214
 108	 218
 108	 222
 108	 228
 108	 230
 108	 234
 108	 247
 108	 248
 109	 110
 109	 128
 109	 166
 109	 181
 109	 189
 109	 203
 109	 204
 109	 213
 109	 215
 109	 221
 109	 230
 109	 249
 110	 113
 110	 134
 110	 136
 110	 148
 110	 150
 110	 160
 110	 162
 110	 178
 110	 179
 110	 189
 110	 194
 110	 210
 110	 223
 110	 232
 110	 236
 110	 238
 111	 127
 111	 129
 111	 137
 111	 140
 111	 145
 111	 148
 111	 168
 111	 169
 111	 172
 111	 222
 111	 226
 111	 227
 111	 233
 111	 244
 112	 119
 112	 123
 112	 133
 112	 141
 112	 143
 112	 150
 112	 158
 112	 160
 112	 185
 112	 205
 112	 209
 112	 212
 112	 225
 112	 244
 112	 249
 113	 123
 113	 126
 113	 133
 113	 134
 113	 137
 113	 149
 113	 154
 113	 159
 113	 165
 113	 201
 113	 239
 113	 246
 114	 159
 114	 172
 114	 190
 114	 195
 114	 203
 114	 229
 114	 237
 115	 121
 115	 125
 115	 128
 115	 153
 115	 155
 115	 157
 115	 170
 115	 175
 115	 187
 115	 200
 115	 212
 115	 214
 115	 227
 115	 233
 115	 239
 116	 122
 116	 133
 116	 138
 116	 139
 116	 142
 116	 163
 116	 188
 116	 195
 116	 204
 116	 222
 116	 230
 116	 235
 117	 118
 117	 124
 117	 127
 117	 133
 117	 136
 117	 138
 117	 163
 117	 171
 117	 179
 117	 187
 117	 196
 117	 208
 117	 213
 117	 214
 117	 233
 117	 242
 117	 247
 118	 123
 118	 132
 118	 140
 118	 144
 118	 154
 118	 158
 118	 161
 118	 168
 118	 173
 118	 177
 118	 185
 118	 187
 118	 191
 118	 196
 118	 202
 118	 212
 118	 215
 118	 216
 118	 223
 118	 240
 119	 121
 119	 123
 119	 125
 119	 132
 119	 135
 119	 144
 119	 148
 119	 150
 119	 167
 119	 199
 119	 200
 119	 209
 119	 210
 119	 212
 119	 218
 119	 221
 120	 121
 120	 124
 120	 127
 120	 130
 120	 150
 120	 152
 120	 154
 120	 155
 120	 156
 120	 160
 120	 163
 120	 171
 120	 187
 120	 191
 120	 234
 120	 238
 121	 135
 121	 138
 121	 140
 121	 152
 121	 158
 121	 161
 121	 168
 121	 170
 121	 180
 121	 187
 121	 197
 121	 203
 121	 207
 121	 217
 121	 231
 121	 236
 121	 240
 122	 127
 122	 140
 122	 144
 122	 159
 122	 184
 122	 200
 122	 214
 122	 219
 122	 220
 122	 223
 122	 228
 122	 245
 123	 167
 123	 169
 123	 180
 123	 182
 123	 191
 123	 205
 123	 215
 123	 247
 124	 126
 124	 131
 124	 139
 124	 146
 124	 157
 124	 168
 124	 170
 124	 179
 124	 182
 124	 187
 124	 195
 124	 200
 124	 226
 124	 232
 124	 240
 124	 243
 124	 248
 125	 137
 125	 146
 125	 151
 125	 154
 125	 158
 125	 168
 125	 181
 125	 182
 125	 207
 125	 209
 125	 210
 125	 220
 125	 234
 125	 238
 125	 243
 125	 248
 126	 127
 126	 150
 126	 155
 126	 158
 126	 168
 126	 183
 126	 202
 126	 205
 126	 218
 126	 236
 126	 243
 127	 144
 127	 146
 127	 183
 127	 221
 127	 239
 128	 154
 128	 157
 128	 159
 128	 162
 128	 166
 128	 179
 128	 187
 128	 188
 128	 193
 128	 200
 128	 202
 128	 217
 128	 224
 129	 130
 129	 132
 129	 133
 129	 140
 129	 143
 129	 145
 129	 170
 129	 187
 129	 191
 129	 197
 129	 201
 129	 209
 129	 210
 129	 228
 129	 233
 129	 247
 130	 133
 130	 136
 130	 145
 130	 180
 130	 184
 130	 188
 130	 202
 130	 205
 130	 208
 130	 225
 130	 239
 130	 244
 131	 154
 131	 157
 131	 163
 131	 164
 131	 177
 131	 195
 131	 199
 131	 207
 131	 212
 131	 213
 131	 214
 131	 221
 131	 242
 132	 135
 132	 148
 132	 151
 132	 168
 132	 197
 132	 210
 132	 211
 132	 217
 132	 221
 132	 222
 132	 239
 133	 153
 133	 155
 133	 164
 133	 172
 133	 175
 133	 180
 133	 208
 133	 211
 133	 219
 133	 223
 133	 228
 133	 237
 134	 138
 134	 139
 134	 144
 134	 160
 134	 162
 134	 174
 134	 190
 134	 198
 134	 199
 134	 202
 134	 217
 134	 219
 134	 231
 134	 243
 134	 249
 135	 139
 135	 154
 135	 158
 135	 173
 135	 174
 135	 178
 135	 183
 135	 185
 135	 201
 135	 202
 136	 151
 136	 153
 136	 165
 136	 175
 136	 180
 136	 196
 136	 200
 136	 206
 136	 216
 136	 224
 136	 229
 136	 239
 137	 161
 137	 165
 137	 169
 137	 178
 137	 191
 137	 204
 137	 205
 137	 211
 137	 213
 137	 216
 137	 218
 137	 224
 137	 237
 137	 241
 137	 245
 138	 140
 138	 142
 138	 151
 138	 159
 138	 172
 138	 182
 138	 185
 138	 187
 138	 200
 138	 212
 138	 222
 138	 226
 139	 163
 139	 165
 139	 178
 139	 209
 139	 217
 139	 235
 139	 240
 139	 246
 140	 142
 140	 146
 140	 162
 140	 172
 140	 198
 140	 209
 140	 213
 140	 214
 140	 219
 140	 220
 140	 235
 140	 239
 140	 246
 141	 159
 141	 161
 141	 163
 141	 167
 141	 189
 141	 192
 141	 202
 141	 234
 141	 245
 142	 151
 142	 156
 142	 184
 142	 195
 142	 201
 142	 218
 142	 225
 142	 238
 142	 243
 142	 245
 142	 247
 143	 147
 143	 151
 143	 169
 143	 181
 143	 188
 143	 198
 143	 210
 143	 222
 143	 239
 144	 170
 144	 197
 144	 207
 144	 214
 144	 215
 144	 232
 144	 237
 144	 240
 144	 247
 145	 155
 145	 160
 145	 174
 145	 178
 145	 182
 145	 206
 145	 210
 145	 237
 145	 242
 145	 243
 145	 244
 145	 246
 146	 153
 146	 155
 146	 172
 146	 177
 146	 186
 146	 220
 146	 235
 147	 156
 147	 175
 147	 182
 147	 202
 147	 205
 147	 219
 147	 220
 147	 222
 147	 224
 147	 245
 147	 249
 148	 150
 148	 153
 148	 176
 148	 182
 148	 183
 148	 192
 148	 202
 148	 203
 148	 205
 148	 213
 148	 224
 148	 231
 148	 242
 148	 249
 149	 162
 149	 167
 149	 168
 149	 179
 149	 181
 149	 206
 149	 208
 149	 210
 149	 216
 149	 238
 149	 241
 150	 170
 150	 198
 150	 201
 150	 207
 150	 210
 150	 212
 150	 216
 150	 228
 150	 235
 150	 237
 151	 159
 151	 161
 151	 177
 151	 180
 151	 202
 151	 203
 151	 210
 151	 221
 151	 228
 151	 238
 151	 242
 152	 172
 152	 173
 152	 188
 152	 192
 152	 196
 152	 205
 152	 211
 152	 213
 152	 215
 152	 219
 152	 224
 153	 176
 153	 186
 153	 195
 153	 209
 153	 217
 153	 222
 153	 240
 154	 162
 154	 165
 154	 173
 154	 180
 154	 232
 154	 237
 154	 242
 154	 246
 154	 248
 155	 156
 155	 158
 155	 166
 155	 167
 155	 184
 155	 202
 155	 209
 155	 220
 155	 238
 156	 157
 156	 161
 156	 196
 156	 203
 156	 220
 156	 223
 156	 239
 156	 241
 157	 158
 157	 159
 157	 187
 157	 192
 157	 197
 157	 220
 157	 230
 158	 181
 158	 196
 158	 205
 158	 207
 158	 213
 158	 219
 158	 223
 158	 227
 158	 249
 159	 164
 159	 170
 159	 180
 159	 191
 159	 195
 159	 209
 159	 229
 159	 231
 159	 240
 159	 244
 159	 245
 160	 161
 160	 166
 160	 173
 160	 183
 160	 185
 160	 187
 160	 188
 160	 189
 160	 212
 160	 225
 160	 230
 160	 233
 160	 235
 160	 243
 160	 244
 161	 162
 161	 164
 161	 175
 161	 185
 161	 186
 161	 201
 161	 205
 161	 207
 161	 214
 161	 220
 161	 226
 161	 227
 161	 249
 162	 168
 162	 183
 162	 219
 162	 249
 163	 164
 163	 168
 163	 179
 163	 206
 163	 212
 163	 221
 163	 234
 163	 249
 164	 169
 164	 175
 164	 196
 164	 208
 164	 222
 164	 232
 164	 247
 164	 248
 165	 167
 165	 170
 165	 176
 165	 184
 165	 185
 165	 201
 165	 246
 166	 176
 166	 187
 166	 198
 166	 199
 166	 205
 166	 206
 166	 219
 166	 227
 166	 241
 166	 243
 166	 246
 167	 174
 167	 200
 167	 204
 167	 208
 167	 215
 167	 232
 168	 179
 168	 191
 168	 201
 168	 205
 168	 207
 168	 216
 168	 218
 168	 228
 168	 235
 168	 236
 169	 172
 169	 197
 169	 198
 169	 205
 169	 207
 169	 221
 169	 222
 169	 225
 169	 227
 169	 236
 169	 237
 169	 242
 170	 172
 170	 184
 170	 187
 170	 189
 170	 199
 170	 201
 170	 202
 170	 214
 170	 215
 170	 227
 170	 232
 170	 233
 170	 236
 170	 244
 171	 184
 171	 197
 171	 210
 171	 217
 171	 230
 171	 233
 171	 237
 171	 239
 172	 174
 172	 179
 172	 195
 172	 196
 172	 224
 172	 241
 172	 246
 173	 174
 173	 194
 173	 195
 173	 203
 173	 211
 173	 236
 173	 247
 174	 187
 174	 188
 174	 189
 174	 191
 174	 200
 174	 204
 174	 219
 174	 235
 174	 238
 174	 241
 174	 243
 174	 246
 174	 248
 174	 249
 175	 186
 175	 225
 175	 226
 176	 183
 176	 194
 176	 210
 176	 239
 177	 183
 177	 219
 177	 220
 177	 221
 177	 228
 177	 246
 177	 249
 178	 189
 178	 193
 178	 199
 178	 208
 178	 212
 178	 214
 178	 217
 178	 223
 179	 184
 179	 197
 179	 224
 179	 234
 179	 239
 179	 243
 179	 245
 180	 209
 180	 222
 180	 231
 181	 188
 181	 207
 181	 219
 181	 220
 182	 183
 182	 205
 182	 215
 182	 228
 182	 249
 183	 200
 183	 205
 183	 210
 183	 223
 184	 195
 184	 209
 184	 223
 184	 227
 184	 238
 184	 241
 185	 188
 185	 193
 185	 201
 185	 227
 185	 232
 185	 247
 186	 207
 186	 212
 186	 221
 186	 229
 187	 192
 187	 194
 187	 197
 187	 239
 188	 202
 188	 203
 188	 206
 189	 198
 189	 205
 189	 207
 189	 214
 189	 215
 189	 234
 189	 236
 190	 206
 190	 209
 190	 211
 190	 234
 190	 238
 190	 239
 191	 222
 191	 231
 191	 232
 191	 233
 191	 243
 192	 195
 192	 203
 192	 215
 192	 218
 192	 224
 192	 230
 192	 237
 192	 241
 192	 244
 192	 249
 193	 202
 193	 217
 193	 225
 193	 234
 194	 205
 194	 213
 194	 217
 194	 227
 194	 231
 194	 244
 194	 248
 195	 198
 195	 214
 195	 222
 195	 235
 195	 241
 196	 197
 197	 208
 197	 218
 197	 228
 198	 211
 198	 220
 198	 239
 199	 207
 199	 245
 200	 203
 200	 234
 200	 241
 200	 244
 201	 202
 201	 203
 201	 222
 201	 227
 201	 237
 201	 246
 202	 209
 202	 211
 202	 221
 202	 226
 202	 237
 202	 243
 202	 244
 202	 247
 203	 217
 203	 218
 203	 236
 204	 236
 204	 238
 204	 243
 204	 249
 205	 227
 205	 228
 205	 239
 205	 242
 206	 207
 206	 209
 206	 214
 206	 247
 207	 215
 207	 247
 207	 249
 208	 218
 208	 224
 208	 243
 209	 219
 209	 225
 209	 229
 209	 234
 210	 211
 210	 212
 210	 217
 211	 220
 211	 225
 211	 236
 212	 214
 212	 215
 212	 229
 212	 230
 212	 236
 212	 242
 212	 249
 213	 238
 213	 242
 213	 247
 214	 217
 214	 221
 214	 224
 214	 232
 215	 223
 215	 226
 215	 227
 215	 232
 215	 238
 215	 246
 215	 249
 216	 232
 216	 233
 216	 238
 217	 218
 217	 231
 217	 247
 217	 248
 218	 231
 218	 248
 219	 228
 219	 236
 219	 237
 219	 245
 219	 248
 220	 224
 220	 247
 221	 237
 221	 247
 222	 240
 222	 242
 222	 245
 225	 236
 225	 248
 226	 248
 227	 239
 228	 241
 228	 244
 229	 240
 229	 244
 230	 239
 231	 238
 233	 240
 235	 241
 236	 245
 236	 248
 237	 246
 237	 249
 238	 239
 238	 243
 238	 249
 241	 249
 242	 246
 244	 246
 246	 248
;
